90
1992
23
2
25
43
66
54
89
83
99
66
49
57
70
11
87
10
11
98
25
72
61
33
22
11
0 1
0 3
0 4
0 5
0 6
0 7
0 9
0 10
0 12
0 13
0 15
0 17
0 22
0 24
0 26
0 27
0 29
0 30
0 31
0 33
0 35
0 36
0 39
0 40
0 41
0 42
0 45
0 46
0 49
0 50
0 59
0 61
0 66
0 67
0 69
0 70
0 71
0 72
0 75
0 76
0 79
0 80
0 82
0 83
0 85
0 86
0 88
0 89
1 4
1 7
1 8
1 9
1 12
1 14
1 17
1 18
1 21
1 24
1 27
1 32
1 34
1 35
1 37
1 38
1 40
1 41
1 42
1 44
1 47
1 48
1 49
1 51
1 52
1 53
1 54
1 55
1 57
1 59
1 60
1 62
1 65
1 66
1 67
1 68
1 70
1 71
1 72
1 76
1 77
1 78
1 79
1 80
1 86
1 87
1 88
1 89
2 4
2 5
2 8
2 9
2 10
2 11
2 15
2 18
2 19
2 20
2 22
2 27
2 28
2 30
2 31
2 33
2 34
2 39
2 40
2 43
2 44
2 46
2 48
2 49
2 50
2 53
2 54
2 55
2 56
2 57
2 58
2 60
2 61
2 62
2 64
2 65
2 67
2 68
2 69
2 71
2 72
2 74
2 75
2 76
2 78
2 80
2 81
2 82
2 83
2 84
2 85
2 88
3 6
3 7
3 8
3 9
3 10
3 12
3 13
3 14
3 15
3 16
3 17
3 19
3 20
3 21
3 22
3 23
3 26
3 27
3 28
3 29
3 30
3 31
3 36
3 40
3 41
3 42
3 43
3 46
3 50
3 51
3 56
3 57
3 59
3 61
3 66
3 71
3 74
3 75
3 76
3 77
3 78
3 80
3 83
3 84
3 87
3 88
3 89
4 7
4 8
4 9
4 11
4 17
4 18
4 23
4 25
4 27
4 28
4 29
4 30
4 31
4 32
4 33
4 35
4 39
4 40
4 41
4 43
4 44
4 46
4 47
4 48
4 49
4 51
4 55
4 56
4 57
4 59
4 61
4 63
4 64
4 65
4 66
4 67
4 68
4 70
4 71
4 72
4 74
4 75
4 81
4 82
4 83
4 85
4 86
5 8
5 13
5 14
5 15
5 16
5 17
5 22
5 23
5 24
5 29
5 30
5 33
5 35
5 36
5 37
5 38
5 39
5 42
5 44
5 50
5 51
5 53
5 55
5 57
5 58
5 59
5 62
5 63
5 69
5 72
5 73
5 75
5 76
5 77
5 79
5 85
5 86
5 88
6 10
6 11
6 16
6 20
6 21
6 22
6 25
6 28
6 30
6 33
6 35
6 39
6 40
6 44
6 45
6 49
6 53
6 54
6 55
6 57
6 61
6 65
6 66
6 68
6 71
6 76
6 80
6 81
6 82
6 84
6 85
6 86
7 12
7 14
7 16
7 21
7 22
7 23
7 25
7 31
7 34
7 36
7 40
7 42
7 43
7 45
7 46
7 47
7 48
7 49
7 51
7 52
7 57
7 58
7 59
7 61
7 62
7 64
7 65
7 66
7 69
7 71
7 72
7 73
7 75
7 76
7 77
7 81
7 82
7 83
7 88
8 9
8 10
8 13
8 14
8 16
8 17
8 18
8 19
8 20
8 22
8 23
8 26
8 29
8 31
8 32
8 33
8 34
8 36
8 37
8 40
8 41
8 42
8 43
8 44
8 45
8 47
8 54
8 56
8 58
8 59
8 60
8 61
8 62
8 65
8 67
8 68
8 69
8 73
8 74
8 75
8 76
8 78
8 79
8 80
8 81
8 85
8 88
8 89
9 12
9 13
9 18
9 19
9 20
9 22
9 23
9 24
9 26
9 28
9 29
9 34
9 38
9 39
9 41
9 42
9 43
9 45
9 48
9 49
9 51
9 52
9 53
9 54
9 56
9 58
9 59
9 60
9 62
9 66
9 67
9 71
9 73
9 75
9 77
9 80
9 81
9 82
9 87
9 88
10 12
10 13
10 15
10 16
10 18
10 19
10 22
10 25
10 29
10 33
10 37
10 38
10 49
10 51
10 52
10 54
10 57
10 58
10 59
10 60
10 61
10 62
10 63
10 68
10 69
10 70
10 72
10 73
10 75
10 77
10 80
10 82
10 85
10 86
10 87
11 12
11 14
11 16
11 17
11 23
11 24
11 31
11 32
11 36
11 40
11 41
11 42
11 48
11 50
11 51
11 53
11 55
11 58
11 59
11 60
11 61
11 62
11 66
11 67
11 68
11 69
11 70
11 71
11 72
11 74
11 77
11 80
11 82
11 83
11 84
11 85
11 89
12 13
12 15
12 23
12 27
12 29
12 32
12 39
12 40
12 41
12 42
12 45
12 47
12 48
12 53
12 54
12 57
12 59
12 60
12 69
12 70
12 72
12 73
12 74
12 75
12 76
12 78
12 80
12 82
12 83
12 88
13 14
13 15
13 16
13 18
13 19
13 23
13 24
13 25
13 27
13 32
13 34
13 39
13 40
13 41
13 42
13 43
13 44
13 45
13 46
13 48
13 50
13 52
13 53
13 57
13 60
13 61
13 63
13 65
13 67
13 69
13 70
13 75
13 78
13 79
13 80
13 83
13 84
13 85
13 87
13 88
13 89
14 17
14 21
14 23
14 24
14 25
14 27
14 28
14 31
14 33
14 34
14 36
14 38
14 39
14 40
14 41
14 42
14 43
14 47
14 50
14 51
14 52
14 54
14 61
14 62
14 63
14 65
14 66
14 69
14 70
14 74
14 75
14 78
14 80
14 83
14 84
14 85
14 86
14 87
14 88
14 89
15 20
15 23
15 24
15 25
15 26
15 28
15 29
15 31
15 32
15 36
15 37
15 38
15 39
15 41
15 42
15 50
15 51
15 52
15 54
15 56
15 57
15 59
15 61
15 64
15 65
15 68
15 71
15 72
15 78
15 79
15 82
15 85
15 87
16 17
16 18
16 19
16 21
16 22
16 23
16 25
16 26
16 27
16 34
16 35
16 38
16 40
16 41
16 42
16 43
16 44
16 45
16 46
16 50
16 54
16 57
16 59
16 60
16 61
16 62
16 68
16 69
16 71
16 73
16 74
16 75
16 77
16 78
16 79
16 83
16 84
16 85
16 86
17 19
17 21
17 22
17 23
17 24
17 25
17 26
17 28
17 30
17 31
17 32
17 33
17 34
17 36
17 37
17 38
17 39
17 42
17 44
17 47
17 48
17 50
17 53
17 57
17 61
17 62
17 64
17 66
17 73
17 76
17 78
17 79
17 80
17 84
17 85
17 87
18 19
18 27
18 30
18 32
18 34
18 35
18 36
18 37
18 50
18 56
18 57
18 59
18 62
18 64
18 65
18 66
18 67
18 68
18 71
18 73
18 74
18 77
18 78
18 79
18 80
18 82
18 83
18 87
18 88
19 20
19 22
19 23
19 27
19 31
19 34
19 35
19 36
19 39
19 40
19 41
19 43
19 47
19 48
19 49
19 51
19 52
19 54
19 55
19 57
19 58
19 60
19 61
19 63
19 64
19 66
19 67
19 68
19 71
19 73
19 74
19 75
19 76
19 81
19 83
19 85
19 87
19 89
20 23
20 25
20 26
20 28
20 31
20 32
20 33
20 34
20 36
20 37
20 38
20 39
20 40
20 42
20 48
20 49
20 51
20 52
20 53
20 56
20 58
20 63
20 64
20 65
20 66
20 67
20 69
20 71
20 73
20 74
20 76
20 78
20 79
20 84
20 85
20 86
20 87
20 88
20 89
21 23
21 26
21 27
21 28
21 30
21 31
21 32
21 34
21 37
21 39
21 41
21 43
21 50
21 51
21 54
21 55
21 56
21 57
21 58
21 61
21 63
21 64
21 65
21 66
21 67
21 72
21 73
21 78
21 80
21 81
21 85
21 86
21 88
21 89
22 23
22 27
22 28
22 32
22 33
22 35
22 40
22 43
22 50
22 54
22 55
22 59
22 60
22 61
22 63
22 64
22 67
22 68
22 69
22 70
22 71
22 72
22 73
22 74
22 76
22 78
22 79
22 80
22 83
22 86
22 87
23 27
23 30
23 32
23 33
23 35
23 36
23 37
23 38
23 43
23 45
23 46
23 47
23 49
23 50
23 51
23 55
23 58
23 61
23 62
23 63
23 65
23 67
23 68
23 70
23 71
23 73
23 78
23 84
23 86
23 88
24 25
24 27
24 30
24 31
24 32
24 34
24 35
24 36
24 40
24 42
24 48
24 49
24 50
24 52
24 56
24 58
24 59
24 60
24 63
24 67
24 70
24 71
24 73
24 77
24 78
24 79
24 80
24 81
24 82
24 83
24 84
24 89
25 26
25 27
25 28
25 29
25 30
25 32
25 33
25 37
25 41
25 42
25 43
25 47
25 50
25 51
25 53
25 54
25 56
25 58
25 60
25 62
25 63
25 64
25 66
25 69
25 74
25 76
25 81
25 82
25 83
25 84
25 85
25 86
25 89
26 28
26 29
26 30
26 33
26 36
26 38
26 41
26 42
26 43
26 44
26 49
26 53
26 56
26 58
26 60
26 63
26 65
26 67
26 68
26 69
26 74
26 75
26 76
26 77
26 78
26 79
26 81
26 86
26 87
27 31
27 32
27 33
27 37
27 38
27 39
27 46
27 49
27 50
27 51
27 52
27 54
27 56
27 57
27 58
27 59
27 60
27 61
27 62
27 63
27 64
27 65
27 67
27 68
27 70
27 72
27 73
27 74
27 77
27 80
27 81
27 83
27 84
27 86
27 87
27 88
28 30
28 31
28 32
28 34
28 35
28 38
28 40
28 42
28 46
28 47
28 48
28 49
28 52
28 53
28 54
28 56
28 58
28 61
28 67
28 70
28 74
28 75
28 77
28 79
28 81
28 83
28 87
29 30
29 32
29 33
29 34
29 38
29 40
29 42
29 45
29 46
29 48
29 49
29 52
29 53
29 54
29 55
29 57
29 58
29 61
29 64
29 65
29 66
29 67
29 68
29 69
29 70
29 71
29 75
29 76
29 77
29 79
29 80
29 82
29 83
29 87
30 31
30 32
30 33
30 35
30 37
30 39
30 41
30 42
30 45
30 46
30 51
30 52
30 53
30 54
30 55
30 56
30 60
30 61
30 62
30 63
30 65
30 66
30 67
30 71
30 72
30 73
30 76
30 78
30 79
30 81
30 82
30 83
30 87
30 88
30 89
31 32
31 36
31 41
31 44
31 45
31 46
31 49
31 50
31 54
31 56
31 57
31 58
31 60
31 62
31 64
31 65
31 66
31 68
31 69
31 71
31 72
31 74
31 75
31 77
31 81
31 82
31 83
31 84
31 85
32 37
32 42
32 43
32 44
32 45
32 46
32 50
32 52
32 53
32 55
32 56
32 60
32 64
32 68
32 69
32 70
32 71
32 72
32 74
32 76
32 78
32 80
32 81
32 83
32 86
32 88
32 89
33 34
33 35
33 36
33 37
33 38
33 39
33 40
33 41
33 42
33 44
33 46
33 50
33 52
33 58
33 61
33 62
33 64
33 65
33 66
33 67
33 71
33 74
33 76
33 77
33 79
33 83
33 89
34 35
34 38
34 40
34 42
34 47
34 48
34 50
34 51
34 53
34 54
34 57
34 58
34 60
34 61
34 66
34 68
34 69
34 70
34 71
34 73
34 75
34 78
34 79
34 80
34 82
34 83
34 84
34 85
34 88
34 89
35 36
35 37
35 43
35 44
35 45
35 46
35 50
35 51
35 52
35 53
35 54
35 55
35 57
35 58
35 60
35 61
35 62
35 64
35 65
35 68
35 72
35 74
35 75
35 76
35 77
35 78
35 79
35 80
35 84
35 89
36 37
36 38
36 41
36 42
36 44
36 45
36 48
36 49
36 50
36 51
36 55
36 58
36 61
36 62
36 63
36 66
36 67
36 71
36 72
36 74
36 75
36 80
36 88
36 89
37 39
37 40
37 45
37 48
37 49
37 50
37 51
37 53
37 55
37 56
37 57
37 58
37 59
37 61
37 62
37 63
37 64
37 67
37 68
37 69
37 72
37 73
37 74
37 75
37 76
37 77
37 78
37 83
37 84
37 87
37 88
37 89
38 39
38 40
38 41
38 43
38 45
38 46
38 49
38 50
38 51
38 53
38 54
38 57
38 61
38 62
38 65
38 68
38 70
38 76
38 77
38 78
38 79
38 80
38 81
38 83
38 84
38 87
38 89
39 40
39 43
39 44
39 46
39 47
39 49
39 51
39 52
39 53
39 54
39 56
39 58
39 59
39 61
39 62
39 63
39 65
39 66
39 70
39 71
39 73
39 76
39 79
39 81
39 83
39 84
39 85
39 87
40 41
40 47
40 51
40 54
40 55
40 56
40 58
40 59
40 63
40 64
40 66
40 67
40 70
40 72
40 74
40 76
40 77
40 78
40 87
41 44
41 45
41 46
41 48
41 51
41 52
41 54
41 57
41 58
41 60
41 62
41 63
41 65
41 66
41 67
41 68
41 71
41 74
41 78
41 79
41 81
41 82
41 84
41 85
41 87
42 43
42 45
42 46
42 47
42 48
42 51
42 52
42 56
42 63
42 68
42 71
42 73
42 74
42 75
42 78
42 81
42 83
42 85
42 87
42 88
43 44
43 47
43 48
43 50
43 54
43 55
43 57
43 58
43 59
43 61
43 64
43 66
43 72
43 74
43 75
43 77
43 81
43 83
43 85
43 88
43 89
44 48
44 51
44 52
44 54
44 55
44 58
44 59
44 60
44 61
44 62
44 63
44 65
44 66
44 68
44 70
44 72
44 74
44 77
44 78
44 79
44 82
44 83
44 84
44 87
45 47
45 50
45 51
45 52
45 53
45 54
45 55
45 56
45 58
45 64
45 65
45 68
45 70
45 73
45 74
45 75
45 77
45 79
45 81
45 83
45 86
45 87
45 88
45 89
46 49
46 52
46 54
46 56
46 57
46 58
46 62
46 63
46 64
46 67
46 70
46 75
46 77
46 80
46 82
46 84
46 87
46 88
46 89
47 49
47 50
47 52
47 53
47 54
47 56
47 58
47 60
47 64
47 67
47 70
47 72
47 76
47 77
47 78
47 79
47 80
47 82
47 85
47 89
48 49
48 50
48 52
48 53
48 58
48 59
48 60
48 63
48 64
48 66
48 69
48 70
48 71
48 72
48 75
48 76
48 84
48 85
48 86
48 87
48 89
49 50
49 57
49 59
49 61
49 62
49 64
49 65
49 66
49 67
49 69
49 71
49 76
49 83
49 85
49 87
49 88
49 89
50 51
50 53
50 55
50 56
50 58
50 60
50 64
50 65
50 66
50 68
50 72
50 73
50 81
50 82
50 86
50 87
50 88
51 52
51 53
51 54
51 56
51 57
51 58
51 60
51 61
51 65
51 66
51 67
51 71
51 72
51 73
51 74
51 75
51 76
51 79
51 80
51 82
51 86
51 88
52 54
52 55
52 61
52 63
52 65
52 70
52 71
52 73
52 75
52 76
52 77
52 79
52 80
52 81
52 83
52 87
53 54
53 57
53 58
53 60
53 63
53 66
53 67
53 68
53 74
53 76
53 78
53 79
53 80
53 81
53 85
53 86
53 88
54 55
54 58
54 61
54 63
54 66
54 71
54 75
54 76
54 77
54 78
54 81
54 82
54 86
54 87
55 57
55 60
55 62
55 63
55 67
55 69
55 71
55 74
55 77
55 78
55 81
55 82
55 83
55 85
56 58
56 60
56 62
56 64
56 66
56 69
56 70
56 71
56 75
56 78
56 81
56 82
56 83
56 84
56 85
56 86
56 88
57 60
57 62
57 64
57 67
57 69
57 70
57 71
57 74
57 76
57 77
57 79
57 81
57 82
57 83
57 84
57 85
57 88
58 59
58 61
58 62
58 64
58 65
58 66
58 67
58 68
58 70
58 73
58 75
58 76
58 77
58 80
58 81
58 83
58 84
58 85
58 87
59 60
59 63
59 65
59 74
59 75
59 76
59 77
59 79
59 81
59 84
59 86
59 87
59 89
60 61
60 64
60 66
60 67
60 70
60 71
60 72
60 73
60 74
60 75
60 77
60 80
60 82
60 84
60 85
60 88
60 89
61 62
61 63
61 65
61 66
61 67
61 69
61 73
61 76
61 77
61 79
61 80
61 83
61 86
61 87
61 89
62 64
62 66
62 67
62 68
62 69
62 70
62 71
62 75
62 77
62 79
62 80
62 81
62 89
63 71
63 72
63 74
63 75
63 76
63 77
63 80
63 81
63 82
63 85
63 87
63 88
63 89
64 65
64 68
64 77
64 78
64 79
64 80
64 82
64 83
64 87
64 89
65 66
65 67
65 68
65 69
65 71
65 73
65 74
65 79
65 81
65 82
65 84
65 85
65 87
65 88
66 67
66 70
66 71
66 73
66 74
66 75
66 76
66 82
66 83
66 86
66 89
67 69
67 73
67 74
67 76
67 77
67 81
67 83
67 86
67 87
67 88
68 72
68 74
68 75
68 77
68 79
68 80
68 83
68 84
68 85
68 86
69 72
69 74
69 76
69 88
69 89
70 71
70 72
70 73
70 74
70 76
70 78
70 82
70 83
70 86
70 89
71 72
71 73
71 76
72 73
72 74
72 75
72 79
72 81
72 84
72 88
73 74
73 75
73 80
73 81
73 84
73 85
73 86
73 87
73 89
74 75
74 79
74 84
74 88
75 76
75 78
75 83
75 88
75 89
76 77
76 79
76 81
76 82
76 87
76 88
77 78
77 79
77 80
77 81
77 84
77 86
77 89
78 79
78 83
78 84
78 87
78 88
79 81
79 84
79 85
79 86
80 81
80 82
80 83
80 84
80 86
80 87
81 83
81 84
81 86
81 87
81 88
81 89
82 86
82 87
82 88
83 86
83 87
83 88
84 85
84 86
84 88
84 89
85 87
86 87
86 88
86 89
87 88
7 65 17 12
56 39 60 80
24 54 72 50
75 82 13 6
16 62 74 89
35 44 57 30
63 69 76 86
84 71 45 73
4 2 33 34
81 55 77 31
23 11 85 43
22 40 47 21
42 87 68 9
78 3 64 66
53 27 61 41
79 19 48 52
70 37 8 10
88 25 0 49
51 20 58 83
38 28 46 14
67 29 32 5
59 1 26 15
18 36
